(set-info :origin "driver benchmark extracted from Microsoft SDV")
(set-logic HORN)
(declare-fun Proc27 (Int Int Int Bool Int) Bool)
(declare-fun Proc9 (Int Int Int Bool Int Int Int) Bool)
(declare-fun Proc24 (Int Int Int Bool Int) Bool)
(declare-fun Proc37 (Int Int Int Bool) Bool)
(declare-fun Proc38 (Int Int Int Bool Int Int) Bool)
(declare-fun Proc3 (Int Int Int Bool Int Int Int Int) Bool)
(declare-fun Proc35 (Int Int Int Bool Int Int Int) Bool)
(declare-fun Proc13 (Int Int Int Bool) Bool)
(declare-fun Proc7 (Int Int Int Bool) Bool)
(declare-fun Proc2 (Int Int Int Bool Int Int Int) Bool)
(declare-fun Proc23 (Int Int Int Bool Int) Bool)
(declare-fun Proc14 (Int Int Int Bool) Bool)
(declare-fun Proc21 (Int Int Int Bool Int) Bool)
(declare-fun Proc41 (Int Int Int Bool Int Bool Int Int Int) Bool)
(declare-fun Proc22 (Int Int Int Bool Int) Bool)
(declare-fun Proc30 (Int Int Int Bool Int) Bool)
(declare-fun Proc8 (Int Int Int Bool Int Int Int) Bool)
(declare-fun Proc4 (Int Int Int Bool) Bool)
(declare-fun Proc11 (Int Int Int Bool Int Int Int) Bool)
(declare-fun Proc32 (Int Int Int Bool Int) Bool)
(declare-fun Proc25 (Int Int Int Bool Int) Bool)
(declare-fun Proc18 (Int Int Int Bool Int Int Int Bool Int) Bool)
(declare-fun Proc12 (Int Int Int Bool Int Int Int) Bool)
(declare-fun Proc29 (Int Int Int Bool Int) Bool)
(declare-fun Proc20 (Int Int Int Bool Int) Bool)
(declare-fun Proc16 (Int Int Int Bool Int) Bool)
(declare-fun Proc36 (Int Int Int Bool) Bool)
(declare-fun Proc0 (Int Int Int Bool) Bool)
(declare-fun Proc39 (Int Int Int Bool Int Int Int) Bool)
(declare-fun Proc10 (Int Int Int Bool Int Int) Bool)
(declare-fun Proc5 (Int Int Int Bool Int Int Int Int Int) Bool)
(declare-fun Proc31 (Int Int Int Bool Int) Bool)
(declare-fun Proc19 (Int Int Int Bool Int) Bool)
(declare-fun Proc17 (Int Int Int Bool Int Int) Bool)
(declare-fun Proc15 (Int Int Int Bool Int Int) Bool)
(declare-fun Proc26 (Int Int Int Bool Int) Bool)
(declare-fun Proc40 (Int Int Int Bool) Bool)
(declare-fun Proc28 (Int Int Int Bool Int) Bool)
(declare-fun Proc6 (Int Int Int Bool Int Int) Bool)
(declare-fun Proc34 (Int Int Int Bool Int Int) Bool)
(declare-fun Proc33 (Int Int Int Bool) Bool)
(declare-fun Proc1 (Int Int Int Bool Int Int Int Int) Bool)
(assert (forall ((A Int)
         (B Int)
         (C Int)
         (D Int)
         (E Int)
         (F Int)
         (G Int)
         (H Int)
         (I Int)
         (J Int)
         (K Int)
         (L Int)
         (M Int)
         (N Int)
         (O Int)
         (P Int)
         (Q Int)
         (R Int)
         (S Bool))
  (let ((a!1 (and (not (<= J (+ 1 K))) (not (<= J L))))
        (a!2 (not (and (= G M) (= F I) (= E H)))))
  (let ((a!3 (and (or (not (= H 1)) a!2) (or (= H 1) a!2))))
  (let ((a!4 (or (<= 0 O)
                 (not (and (= M O) (= L N)))
                 (not (= K L))
                 (not a!1)
                 (not (Proc2 J Q P S K I H))
                 a!3))
        (a!5 (or (<= 0 D)
                 (not (Proc4 C Q P S))
                 (not (and (= M D) (= L C)))
                 (not (= K L))
                 (not a!1)
                 (not (Proc2 J Q P S K I H))
                 a!3))
        (a!6 (or (not (<= 0 D))
                 (= B 0)
                 (not (and (= M 0) (= L C)))
                 (not (= K L))
                 (not a!1)
                 (not (Proc2 J Q P S K I H))
                 a!3)))
  (let ((a!7 (and a!4
                  (or (not (<= 0 O))
                      (not (Proc3 N Q P S 105 0 D C))
                      (and a!5 a!6)))))
  (let ((a!8 (not (or (not S)
                      (not (Proc0 R Q P S))
                      (not (Proc1 R Q P S 103 0 O N))
                      a!7))))
    (=> a!8 (Proc5 R Q P S B A G F E)))))))))
(assert (forall ((A Int)
         (B Int)
         (C Int)
         (D Int)
         (E Int)
         (F Int)
         (G Int)
         (H Int)
         (I Int)
         (J Int)
         (K Int)
         (L Int)
         (M Int)
         (N Int)
         (S Bool))
  (let ((a!1 (and (= N M) (not (<= L (+ 12 N)))))
        (a!2 (and (not (<= L M)) (= K L) (not (<= J (+ 24 K))) (not (<= J L))))
        (a!3 (and (not (<= H (+ 1 I))) (not (<= H J)))))
  (let ((a!4 (or (not S)
                 (not a!1)
                 (not a!2)
                 (not (= I J))
                 (not a!3)
                 (not (Proc0 H G F S))
                 (not (Proc6 H G F S K 24))
                 (not (and (= E D) (= C H))))))
    (=> (not a!4) (Proc1 M G F S B A E C))))))
(assert (forall ((A Int)
         (B Int)
         (C Int)
         (D Int)
         (E Int)
         (F Int)
         (G Int)
         (H Int)
         (I Int)
         (J Int)
         (K Int)
         (L Int)
         (M Int)
         (N Int)
         (S Bool))
  (let ((a!1 (and (= N M) (not (<= L (+ 12 N)))))
        (a!2 (and (not (<= L M)) (= K L) (not (<= J (+ 24 K))) (not (<= J L))))
        (a!3 (and (not (<= H (+ 1 I))) (not (<= H J)))))
  (let ((a!4 (or (not S)
                 (not a!1)
                 (not a!2)
                 (not (= I J))
                 (not a!3)
                 (not (Proc0 H G F S))
                 (not (Proc6 H G F S K 24))
                 (not (and (= E D) (= C H))))))
    (=> (not a!4) (Proc3 M G F S B A E C))))))
(assert (forall ((A Int)
         (B Int)
         (C Int)
         (D Int)
         (E Int)
         (F Int)
         (G Int)
         (H Int)
         (I Int)
         (J Int)
         (S Bool))
  (let ((a!1 (and (not (<= F (+ 1 G))) (not (<= F J))))
        (a!2 (or (not (= D 1)) (not (and (= C E) (= B D)))))
        (a!3 (or (= D 1) (not (and (= C E) (= B D))))))
  (let ((a!4 (not (or (not S)
                      (not (Proc0 J I H S))
                      (not (Proc7 J I H S))
                      (not (Proc4 J I H S))
                      (not (= G J))
                      (not a!1)
                      (not (Proc8 F I H S G E D))
                      (and a!2 a!3)))))
    (=> a!4 (Proc9 J I H S A C B))))))
(assert (forall ((A Int) (B Int) (C Int) (S Bool))
  (let ((a!1 (not (or (not S) (not (Proc0 C B A S))))))
    (=> a!1 (Proc7 C B A S)))))
(assert (forall ((A Int) (B Int) (C Int) (S Bool))
  (let ((a!1 (not (or (not S) (not (Proc0 C B A S))))))
    (=> a!1 (Proc4 C B A S)))))
(assert (forall ((A Int)
         (B Int)
         (C Int)
         (D Int)
         (E Int)
         (F Int)
         (G Int)
         (H Int)
         (I Int)
         (S Bool))
  (let ((a!1 (and (not (<= G (+ 1 I))) (not (<= G H)))))
  (let ((a!2 (or (not S)
                 (not (= I H))
                 (not a!1)
                 (not (Proc10 G F E S I D))
                 (not (and (= C G) (= B D))))))
    (=> (not a!2) (Proc11 H F E S A C B))))))
(assert (forall ((A Int)
         (B Int)
         (C Int)
         (D Int)
         (E Int)
         (F Int)
         (G Int)
         (H Int)
         (I Int)
         (S Bool))
  (let ((a!1 (and (not (<= G (+ 1 I))) (not (<= G H)))))
  (let ((a!2 (or (not S)
                 (not (= I H))
                 (not a!1)
                 (not (Proc10 G F E S I D))
                 (not (and (= C G) (= B D))))))
    (=> (not a!2) (Proc12 H F E S A C B))))))
(assert (forall ((A Int)
         (B Int)
         (C Int)
         (D Int)
         (E Int)
         (F Int)
         (G Int)
         (H Int)
         (I Int)
         (J Int)
         (S Bool))
  (let ((a!1 (or (not (= E 1))
                 (not (and (= D F) (= C E)))
                 (not (and (= B D) (= A C)))))
        (a!2 (or (= E 1)
                 (not (and (= D F) (= C E)))
                 (not (and (= B D) (= A C)))))
        (a!3 (or (not (= J 0))
                 (not (and (= D I) (= C H)))
                 (not (and (= B D) (= A C))))))
  (let ((a!4 (and (or (= J 0) (not (Proc12 I J H S G F E)) (and a!1 a!2)) a!3)))
    (=> (not (or (not S) a!4)) (Proc2 I J H S G B A))))))
(assert (forall ((A Int) (B Int) (C Int) (D Int) (E Int) (S Bool))
  (let ((a!1 (not (or (not S) (not (= E 1))))))
    (=> a!1 (Proc10 D C B S A E)))))
(assert (forall ((A Int)
         (B Int)
         (C Int)
         (D Int)
         (E Int)
         (F Int)
         (G Int)
         (H Int)
         (I Int)
         (J Int)
         (S Bool))
  (let ((a!1 (or (not (= E 1))
                 (not (and (= D F) (= C E)))
                 (not (and (= B D) (= A C)))))
        (a!2 (or (= E 1)
                 (not (and (= D F) (= C E)))
                 (not (and (= B D) (= A C)))))
        (a!3 (or (not (= J 0))
                 (not (and (= D I) (= C H)))
                 (not (and (= B D) (= A C))))))
  (let ((a!4 (and (or (= J 0) (not (Proc11 I J H S G F E)) (and a!1 a!2)) a!3)))
    (=> (not (or (not S) a!4)) (Proc8 I J H S G B A))))))
(assert (forall ((A Int) (B Int) (C Int) (S Bool)) (=> S (Proc13 C B A S))))
(assert (forall ((A Int) (B Int) (C Int) (S Bool)) (=> S (Proc14 C B A S))))
(assert (forall ((A Int) (B Int) (C Int) (D Int) (E Int) (S Bool))
  (let ((a!1 (or (not S) (not (and (= E 0) (= D 0))))))
    (=> (not a!1) (Proc15 C B A S E D)))))
(assert (forall ((A Int)
         (B Int)
         (C Int)
         (D Int)
         (E Int)
         (F Int)
         (G Int)
         (H Int)
         (I Int)
         (J Int)
         (K Int)
         (L Int)
         (M Int)
         (N Int)
         (O Int)
         (S Bool)
         (T Bool)
         (U Bool)
         (V Bool))
  (let ((a!1 (not (and (not (<= O 0)) (Proc16 O N M V L))))
        (a!2 (not (and (= E G) (= D K) (= C H) (= T U) (= B I)))))
  (let ((a!3 (or (= H 0) (not (and (= G F) (not U))) a!2))
        (a!4 (or (not (and (= H 0) (= S V))) (not (and (= G A) (= U S))) a!2)))
  (let ((a!5 (and (or (= H 1) (and a!3 a!4)) (or (not (= H 1)) (and a!3 a!4)))))
  (let ((a!6 (not (or (not V)
                      a!1
                      (not (Proc15 L N M V K J))
                      (not (Proc14 L K J V))
                      (not (Proc13 L K J V))
                      (not (Proc17 L K J V I H))
                      a!5))))
    (=> a!6 (Proc18 O N M V E D C T B))))))))
(assert (forall ((A Int) (B Int) (C Int) (D Int) (S Bool))
  (let ((a!1 (not (or (not S) (not (= D 0))))))
    (=> a!1 (Proc19 C B A S D)))))
(assert (forall ((A Int) (B Int) (C Int) (D Int) (S Bool))
  (let ((a!1 (not (or (not S) (not (= D 0))))))
    (=> a!1 (Proc20 C B A S D)))))
(assert (forall ((A Int) (B Int) (C Int) (D Int) (S Bool))
  (let ((a!1 (not (or (not S) (not (= D 0))))))
    (=> a!1 (Proc21 C B A S D)))))
(assert (forall ((A Int) (B Int) (C Int) (D Int) (S Bool))
  (let ((a!1 (not (or (not S) (not (= D 0))))))
    (=> a!1 (Proc22 C B A S D)))))
(assert (forall ((A Int) (B Int) (C Int) (D Int) (S Bool))
  (let ((a!1 (not (or (not S) (not (= D 1))))))
    (=> a!1 (Proc23 C B A S D)))))
(assert (forall ((A Int) (B Int) (C Int) (D Int) (S Bool))
  (let ((a!1 (not (or (not S) (not (= D 0))))))
    (=> a!1 (Proc24 C B A S D)))))
(assert (forall ((A Int) (B Int) (C Int) (D Int) (S Bool))
  (let ((a!1 (not (or (not S) (not (= D 0))))))
    (=> a!1 (Proc25 C B A S D)))))
(assert (forall ((A Int) (B Int) (C Int) (D Int) (S Bool))
  (let ((a!1 (not (or (not S) (not (= D 0))))))
    (=> a!1 (Proc26 C B A S D)))))
(assert (forall ((A Int) (B Int) (C Int) (D Int) (S Bool))
  (let ((a!1 (not (or (not S) (not (= D 0))))))
    (=> a!1 (Proc27 C B A S D)))))
(assert (forall ((A Int) (B Int) (C Int) (D Int) (S Bool))
  (let ((a!1 (not (or (not S) (not (= D 0))))))
    (=> a!1 (Proc28 C B A S D)))))
(assert (forall ((A Int) (B Int) (C Int) (D Int) (S Bool))
  (let ((a!1 (not (or (not S) (not (= D 0))))))
    (=> a!1 (Proc29 C B A S D)))))
(assert (forall ((A Int) (B Int) (C Int) (D Int) (E Int) (S Bool))
  (let ((a!1 (or (not S) (not (= E (- 1073741823))) (not (= D E)))))
    (=> (not a!1) (Proc30 C B A S D)))))
(assert (forall ((A Int) (B Int) (C Int) (D Int) (S Bool))
  (let ((a!1 (not (or (not S) (not (= D 0))))))
    (=> a!1 (Proc31 C B A S D)))))
(assert (forall ((A Int) (B Int) (C Int) (D Int) (E Int) (S Bool))
  (=> S (Proc6 E D C S B A))))
(assert (forall ((A Int)
         (B Int)
         (C Int)
         (D Int)
         (E Int)
         (F Int)
         (G Int)
         (H Int)
         (I Int)
         (J Int)
         (K Int)
         (L Int)
         (M Int)
         (N Int)
         (O Int)
         (P Int)
         (Q Int)
         (R Int)
         (S Bool)
         (W Int)
         (X Int)
         (Y Int)
         (Z Int)
         (A1 Int)
         (B1 Int)
         (C1 Int)
         (D1 Int)
         (E1 Int))
  (let ((a!1 (and (or (= A1 0)
                      (not (Proc30 D1 C1 B1 S D))
                      (not (= Y D))
                      (not (Proc34 D1 C1 B1 S Y E1))
                      (= E1 0)
                      (not (= X Y)))
                  (or (not (= C 1))
                      (= C 0)
                      (= A1 0)
                      (not (Proc30 D1 C1 B1 S D))
                      (not (= Y D))
                      (not (Proc34 D1 C1 B1 S Y E1))
                      (= E1 0)
                      (not (= X Y))))))
  (let ((a!2 (and (or (= A1 0) a!1) (or (not (= B 1)) (= B 0) (= A1 0) a!1))))
  (let ((a!3 (and (or (= A1 0)
                      (not (Proc30 D1 C1 B1 S Z))
                      (not (= Y Z))
                      (not (Proc34 D1 C1 B1 S Y E1))
                      (= E1 0)
                      (not (= X Y)))
                  (or (= A1 0)
                      (not (Proc30 D1 C1 B1 S W))
                      (not (= Y W))
                      (not (Proc34 D1 C1 B1 S Y E1))
                      (= E1 0)
                      (not (= X Y)))
                  (or (= A1 0)
                      (not (Proc30 D1 C1 B1 S R))
                      (not (= Y R))
                      (not (Proc34 D1 C1 B1 S Y E1))
                      (= E1 0)
                      (not (= X Y)))
                  (or (= A1 0)
                      (not (Proc30 D1 C1 B1 S Q))
                      (not (= Y Q))
                      (not (Proc34 D1 C1 B1 S Y E1))
                      (= E1 0)
                      (not (= X Y)))
                  (or (= A1 0)
                      (not (Proc30 D1 C1 B1 S P))
                      (not (= Y P))
                      (not (Proc34 D1 C1 B1 S Y E1))
                      (= E1 0)
                      (not (= X Y)))
                  (or (= A1 0)
                      (not (Proc30 D1 C1 B1 S O))
                      (not (= Y O))
                      (not (Proc34 D1 C1 B1 S Y E1))
                      (= E1 0)
                      (not (= X Y)))
                  (or (= A1 0)
                      (not (Proc30 D1 C1 B1 S N))
                      (not (= Y N))
                      (not (Proc34 D1 C1 B1 S Y E1))
                      (= E1 0)
                      (not (= X Y)))
                  (or (not (Proc30 D1 C1 B1 S M))
                      (not (= Y M))
                      (not (Proc34 D1 C1 B1 S Y E1))
                      (= E1 0)
                      (not (= X Y)))
                  (or (= A1 0)
                      (not (Proc30 D1 C1 B1 S L))
                      (not (= Y L))
                      (not (Proc34 D1 C1 B1 S Y E1))
                      (= E1 0)
                      (not (= X Y)))
                  (or (= A1 0)
                      (not (Proc30 D1 C1 B1 S K))
                      (not (= Y K))
                      (not (Proc34 D1 C1 B1 S Y E1))
                      (= E1 0)
                      (not (= X Y)))
                  (or (= A1 0)
                      (not (Proc30 D1 C1 B1 S J))
                      (not (= Y J))
                      (not (Proc34 D1 C1 B1 S Y E1))
                      (= E1 0)
                      (not (= X Y)))
                  (or (not (Proc30 D1 C1 B1 S I))
                      (not (= Y I))
                      (not (Proc34 D1 C1 B1 S Y E1))
                      (= E1 0)
                      (not (= X Y)))
                  (or (= A1 0)
                      (not (Proc30 D1 C1 B1 S H))
                      (not (= Y H))
                      (not (Proc34 D1 C1 B1 S Y E1))
                      (= E1 0)
                      (not (= X Y)))
                  (or (= A1 0)
                      (not (Proc30 D1 C1 B1 S G))
                      (not (= Y G))
                      (not (Proc34 D1 C1 B1 S Y E1))
                      (= E1 0)
                      (not (= X Y)))
                  (or (= A1 0)
                      (not (Proc30 D1 C1 B1 S F))
                      (not (= Y F))
                      (not (Proc34 D1 C1 B1 S Y E1))
                      (= E1 0)
                      (not (= X Y)))
                  (or (not (Proc30 D1 C1 B1 S E))
                      (not (= Y E))
                      (not (Proc34 D1 C1 B1 S Y E1))
                      (= E1 0)
                      (not (= X Y)))
                  (or (= A1 0) a!2))))
  (let ((a!4 (not (or (not S)
                      (= E1 0)
                      (not (Proc32 D1 C1 B1 S E1))
                      (= A1 0)
                      (not (Proc33 D1 C1 B1 S))
                      a!3))))
    (=> a!4 (Proc35 D1 C1 B1 S A E1 X))))))))
(assert (forall ((A Int) (B Int) (C Int) (D Int) (E Int) (F Int) (S Bool))
  (let ((a!1 (not (or (not S)
                      (not (Proc36 F E D S))
                      (not (Proc30 F E D S C))
                      (not (Proc37 F E D S))))))
    (=> a!1 (Proc38 F E D S B A)))))
(assert (forall ((A Int)
         (B Int)
         (C Int)
         (D Int)
         (E Int)
         (F Int)
         (G Int)
         (H Int)
         (S Bool))
  (let ((a!1 (or (not (= C 1)) (not (and (= B D) (= A C)))))
        (a!2 (or (= C 1) (not (and (= B D) (= A C))))))
  (let ((a!3 (not (or (not S) (not (Proc9 H G F S E D C)) (and a!1 a!2)))))
    (=> a!3 (Proc39 H G F S E B A))))))
(assert (forall ((A Int) (B Int) (C Int) (D Int) (S Bool))
  (=> (not (or (not S) (= D 0))) (Proc32 C B A S D))))
(assert (forall ((A Int) (B Int) (C Int) (S Bool)) (=> S (Proc0 C B A S))))
(assert (forall ((A Int)
         (B Int)
         (C Int)
         (D Int)
         (E Int)
         (F Int)
         (G Int)
         (H Int)
         (I Int)
         (J Int)
         (K Int)
         (L Int)
         (M Int)
         (N Int)
         (O Int)
         (P Int)
         (Q Int)
         (R Int)
         (S Bool)
         (W Int)
         (X Int)
         (Y Int)
         (Z Int)
         (A1 Int)
         (B1 Int)
         (C1 Int)
         (D1 Int)
         (E1 Int)
         (F1 Int)
         (G1 Int)
         (H1 Int)
         (I1 Int)
         (J1 Int)
         (K1 Int))
  (let ((a!1 (and (not (<= I1 (+ 12 K1))) (not (<= I1 J1))))
        (a!2 (or (= F1 0)
                 (not (Proc40 I1 H1 G1 S))
                 (not (Proc35 I1 H1 G1 S P O N))
                 (not (and (= M G1) (= L I1)))
                 (not (and (= K L) (= J M)))))
        (a!3 (or (not (= F1 0))
                 (not (and (= M G1) (= L I1)))
                 (not (and (= K L) (= J M)))))
        (a!4 (or (= E1 0)
                 (not (Proc40 I1 H1 G1 S))
                 (not (Proc38 I1 H1 G1 S I H))
                 (not (and (= M G1) (= L I1)))
                 (not (and (= K L) (= J M)))))
        (a!5 (or (not (= E1 0))
                 (not (and (= M G1) (= L I1)))
                 (not (and (= K L) (= J M)))))
        (a!6 (or (not (and (= M G1) (= L I1))) (not (and (= K L) (= J M)))))
        (a!7 (or (not (= D 1))
                 (not (and (= M D) (= L E)))
                 (not (and (= K L) (= J M)))))
        (a!8 (or (= D 1)
                 (not (and (= M D) (= L E)))
                 (not (and (= K L) (= J M)))))
        (a!9 (or (not (= A 1))
                 (not (and (= M A) (= L B)))
                 (not (and (= K L) (= J M)))))
        (a!10 (or (= A 1)
                  (not (and (= M A) (= L B)))
                  (not (and (= K L) (= J M))))))
  (let ((a!11 (and a!2
                   a!3
                   a!4
                   a!5
                   a!6
                   (or (not (Proc5 I1 H1 G1 S G K1 F E D)) (and a!7 a!8))
                   (or (not (Proc39 I1 H1 G1 S C B A)) (and a!9 a!10)))))
  (let ((a!12 (not (or (not S)
                       (not (= K1 J1))
                       (not a!1)
                       (not (Proc21 I1 H1 G1 S F1))
                       (not (Proc28 I1 H1 G1 S E1))
                       (not (Proc22 I1 H1 G1 S D1))
                       (not (Proc27 I1 H1 G1 S C1))
                       (not (Proc20 I1 H1 G1 S B1))
                       (not (Proc24 I1 H1 G1 S A1))
                       (not (Proc31 I1 H1 G1 S Z))
                       (not (Proc29 I1 H1 G1 S Y))
                       (not (Proc19 I1 H1 G1 S X))
                       (not (Proc25 I1 H1 G1 S W))
                       (not (Proc26 I1 H1 G1 S R))
                       (not (Proc23 I1 H1 G1 S Q))
                       a!11))))
    (=> a!12 (Proc17 J1 H1 G1 S K J)))))))
(assert (forall ((A Int) (B Int) (C Int) (S Bool)) (=> S (Proc33 C B A S))))
(assert (forall ((A Int) (B Int) (C Int) (D Int) (E Int) (S Bool))
  (=> S (Proc34 E D C S B A))))
(assert (forall ((A Int) (B Int) (C Int) (S Bool)) (=> S (Proc40 C B A S))))
(assert (forall ((A Int) (B Int) (C Int) (S Bool)) (=> S (Proc36 C B A S))))
(assert (forall ((A Int) (B Int) (C Int) (S Bool)) (=> S (Proc37 C B A S))))
(assert (forall ((A Int)
         (B Int)
         (C Int)
         (D Int)
         (E Int)
         (F Int)
         (G Int)
         (H Int)
         (I Int)
         (J Int)
         (K Int)
         (L Int)
         (M Int)
         (N Int)
         (O Int)
         (P Int)
         (Q Int)
         (R Int)
         (S Bool)
         (W Int)
         (X Int)
         (Y Int)
         (Z Int)
         (A1 Int)
         (B1 Int)
         (C1 Int)
         (D1 Int)
         (E1 Int)
         (F1 Int)
         (G1 Int)
         (H1 Int)
         (I1 Int)
         (J1 Int)
         (K1 Int)
         (L1 Int)
         (M1 Int)
         (N1 Int)
         (O1 Int)
         (P1 Int)
         (Q1 Int)
         (R1 Int)
         (S1 Int)
         (T1 Int)
         (U1 Int)
         (V1 Int)
         (W1 Int)
         (X1 Int)
         (Y1 Int)
         (Z1 Int)
         (A2 Int)
         (B2 Int)
         (C2 Int)
         (D2 Int))
  (let ((a!1 (and (= D2 C2)
                  (not (<= B2 (+ 4 D2)))
                  (not (<= B2 C2))
                  (= A2 B2)
                  (not (<= Z1 (+ 332 A2)))
                  (not (<= Z1 B2))
                  (= Y1 Z1)
                  (not (<= X1 (+ 4 Y1)))))
        (a!2 (and (not (<= X1 Z1))
                  (= W1 X1)
                  (not (<= V1 (+ 536 W1)))
                  (not (<= V1 X1))
                  (= U1 V1)
                  (not (<= T1 (+ 240 U1)))
                  (not (<= T1 V1))
                  (= S1 T1)
                  (not (<= R1 (+ 240 S1)))
                  (not (<= R1 T1))
                  (= Q1 R1)
                  (not (<= P1 (+ 240 Q1)))
                  (not (<= P1 R1))
                  (= O1 P1)
                  (not (<= N1 (+ 4 O1)))
                  (not (<= N1 P1))
                  (= M1 N1)
                  (not (<= L1 (+ 536 M1)))
                  (not (<= L1 N1))
                  (= K1 L1)
                  (not (<= J1 (+ 332 K1)))
                  (not (<= J1 L1))
                  (= I1 J1)
                  (not (<= H1 (+ 240 I1)))
                  (not (<= H1 J1))
                  (= G1 H1)
                  (not (<= F1 (+ 240 G1)))
                  (not (<= F1 H1))
                  (= E1 F1)
                  (not (<= D1 (+ 332 E1)))
                  (not (<= D1 F1))
                  (= C1 D1)
                  (not (<= B1 (+ 4 C1)))
                  (not (<= B1 D1))
                  (= A1 B1)
                  (not (<= Z (+ 68 A1)))
                  (not (<= Z B1))
                  (= Y Z)
                  (not (<= X (+ 240 Y)))
                  (not (<= X Z))
                  (= W X)
                  (not (<= R (+ 240 W)))
                  (not (<= R X))
                  (= Q R)
                  (not (<= P (+ 240 Q)))
                  (not (<= P R))
                  (= O P)
                  (not (<= N (+ 240 O)))
                  (not (<= N P))
                  (= M N)
                  (not (<= L (+ 240 M)))
                  (not (<= L N))
                  (= K L)
                  (not (<= J (+ 40 K)))
                  (not (<= J L))
                  (= I J)
                  (not (<= H (+ 332 I)))
                  (not (<= H J))
                  (= G H)
                  (not (<= F (+ 4 G)))
                  (not (<= F H))
                  (= E F)
                  (not (<= D (+ 40 E)))
                  (not (<= D F)))))
  (let ((a!3 (not (or (not S) (not a!1) (not a!2) (not (= C D))))))
    (=> a!3 (Proc16 C2 B A S C))))))
(assert (forall ((A Int)
         (B Int)
         (C Int)
         (D Int)
         (E Int)
         (F Int)
         (G Int)
         (H Int)
         (I Int)
         (J Int)
         (K Int)
         (S Bool)
         (T Bool)
         (U Bool))
  (let ((a!1 (or (not U) (not (and (Proc18 K J I true H G F T E) (not T))))))
    (=> (not a!1) (Proc41 K J I U D S C B A)))))
(assert (let ((a!1 (exists ((V0 Int)
                    (V1 Int)
                    (V2 Int)
                    (V3 Bool)
                    (V4 Int)
                    (V5 Bool)
                    (V6 Int)
                    (V7 Int)
                    (V8 Int))
             (not (=> (and (Proc41 V0 V1 V2 V3 V4 V5 V6 V7 V8) (not false))
                      false)))))
  (not a!1)))

(check-sat)
